c Result of efficient AIG-to-CNF conversion using package CNF
p cnf 36 53
2 -19 -20 0
-2 19 0
-2 20 0
3 21 22 0
-3 -21 0
-3 -22 0
4 -2 -3 0
-4 2 0
-4 3 0
5 23 24 0
-5 -23 0
-5 -24 0
6 -25 26 0
-6 25 0
-6 -26 0
7 -5 -6 0
-7 5 0
-7 6 0
8 -4 7 0
-8 4 0
-8 -7 0
9 34 35 0
-9 -34 0
-9 -35 0
10 33 -9 0
-10 -33 0
-10 9 0
11 32 -10 0
-11 -32 0
-11 10 0
12 31 -11 0
-12 -31 0
-12 11 0
13 30 -12 0
-13 -30 0
-13 12 0
14 29 -13 0
-14 -29 0
-14 13 0
15 28 -14 0
-15 -28 0
-15 14 0
16 27 -15 0
-16 -27 0
-16 15 0
17 35 16 0
-17 -35 0
-17 -16 0
18 8 -17 0
-18 -8 0
-18 17 0
36 0
18 0

